WARNING: for repeatability, setting FPU to use double precision
============================[ Problem Statistics ]=============================
|                                                                             |
|  Number of variables:            50                                         |
|  Number of clauses:             218                                         |
|  Parse time:                   0.00 s                                       |
|                                                                             |
============================[ Search Statistics ]==============================
| Conflicts |          ORIGINAL         |          LEARNT          | Progress |
|           |    Vars  Clauses Literals |    Limit  Clauses Lit/Cl |          |
===============================================================================
===============================================================================
restarts              : 1
conflicts             : 62             (41864 /sec)
decisions             : 82             (0.00 % random) (55368 /sec)
propagations          : 975            (658339 /sec)
conflict literals     : 275            (18.88 % deleted)
Memory used           : 20.00 MB
CPU time              : 0.001481 s

SATISFIABLE
